p edge 30 105 20
v 2 5 28
v 2 21 29
v 2 12 22
v 1 16
v 1 25
v 2 11 17
v 1 18
v 2 15 30
v 1 27
v 1 10
v 1 4
v 1 23
v 3 2 8 20
v 1 3
v 2 1 6
v 1 24
v 2 13 26
v 2 7 19
v 1 14
v 1 9
e 1 2
e 1 3
e 1 6
e 1 11
e 1 17
e 1 19
e 1 26
e 1 28
e 2 6
e 2 9
e 2 13
e 2 15
e 2 24
e 2 25
e 2 26
e 2 27
e 2 30
e 3 6
e 3 15
e 3 16
e 3 18
e 3 25
e 3 27
e 3 30
e 4 22
e 4 24
e 4 27
e 5 6
e 5 14
e 5 16
e 5 18
e 5 22
e 5 28
e 6 19
e 6 23
e 6 30
e 7 10
e 7 13
e 7 14
e 7 15
e 7 17
e 7 21
e 7 25
e 8 11
e 8 15
e 8 16
e 8 23
e 8 27
e 8 29
e 9 26
e 10 13
e 10 14
e 10 21
e 10 23
e 10 26
e 10 27
e 11 23
e 11 25
e 11 29
e 11 30
e 12 15
e 12 16
e 12 20
e 12 26
e 12 27
e 12 28
e 13 15
e 13 16
e 13 26
e 14 15
e 14 16
e 14 18
e 14 19
e 14 28
e 15 17
e 15 24
e 15 27
e 15 28
e 16 20
e 16 21
e 16 24
e 17 19
e 17 20
e 17 21
e 17 22
e 17 25
e 18 21
e 18 22
e 18 29
e 19 22
e 19 28
e 20 24
e 21 25
e 21 30
e 22 24
e 22 26
e 22 27
e 23 27
e 24 25
e 25 28
e 25 29
e 26 27
e 26 28
e 26 30
e 28 29
